(set-info :status sat)
(declare-const symbol_225 (_ BitVec 32))
(declare-const symbol_406 (_ BitVec 32))
(declare-const symbol_71 (_ BitVec 32))
(declare-const symbol_317 (_ BitVec 32))
(declare-const symbol_476 (_ BitVec 32))
(declare-const symbol_466 (_ BitVec 32))
(declare-const symbol_438 (_ BitVec 32))
(declare-const symbol_419 (_ BitVec 32))
(declare-const symbol_472 (_ BitVec 32))
(declare-const symbol_460 (_ BitVec 32))
(declare-const symbol_25 (_ BitVec 32))
(declare-const symbol_484 (_ BitVec 32))
(declare-const symbol_197 (_ BitVec 32))
(declare-const symbol_125 (_ BitVec 32))
(declare-const symbol_366 (_ BitVec 32))
(declare-const symbol_293 (_ BitVec 32))
(declare-const symbol_458 (_ BitVec 32))
(declare-const symbol_454 (_ BitVec 32))
(declare-const symbol_189 (_ BitVec 32))
(declare-const symbol_73 (_ BitVec 32))
(declare-const symbol_42 (_ BitVec 32))
(declare-const symbol_456 (_ BitVec 32))
(declare-const symbol_271 (_ BitVec 32))
(declare-const symbol_91 (_ BitVec 32))
(declare-const symbol_388 (_ BitVec 32))
(declare-const symbol_193 (_ BitVec 32))
(declare-const symbol_115 (_ BitVec 32))
(declare-const symbol_432 (_ BitVec 32))
(declare-const symbol_257 (_ BitVec 32))
(declare-const symbol_247 (_ BitVec 32))
(declare-const symbol_178 (_ BitVec 32))
(declare-const symbol_496 (_ BitVec 32))
(declare-const symbol_425 (_ BitVec 32))
(declare-const symbol_167 (_ BitVec 32))
(declare-const symbol_131 (_ BitVec 32))
(declare-const symbol_446 (_ BitVec 32))
(declare-const symbol_289 (_ BitVec 32))
(declare-const symbol_137 (_ BitVec 32))
(declare-const symbol_382 (_ BitVec 32))
(declare-const symbol_243 (_ BitVec 32))
(declare-const symbol_171 (_ BitVec 32))
(declare-const symbol_488 (_ BitVec 32))
(declare-const symbol_478 (_ BitVec 32))
(declare-const symbol_102 (_ BitVec 32))
(declare-const symbol_421 (_ BitVec 32))
(declare-const symbol_77 (_ BitVec 32))
(declare-const symbol_60 (_ BitVec 32))
(declare-const symbol_205 (_ BitVec 32))
(declare-const symbol_301 (_ BitVec 32))
(declare-const symbol_241 (_ BitVec 32))
(declare-const symbol_28 (_ BitVec 32))
(declare-const symbol_23 (_ BitVec 32))
(declare-const symbol_443 (_ BitVec 32))
(declare-const symbol_335 (_ BitVec 32))
(declare-const symbol_184 (_ BitVec 32))
(declare-const symbol_44 (_ BitVec 32))
(declare-const symbol_251 (_ BitVec 32))
(declare-const symbol_398 (_ BitVec 32))
(declare-const symbol_229 (_ BitVec 32))
(declare-const symbol_103 (_ BitVec 32))
(declare-const symbol_96 (_ BitVec 32))
(declare-const symbol_396 (_ BitVec 32))
(declare-const symbol_329 (_ BitVec 32))
(declare-const symbol_255 (_ BitVec 32))
(declare-const symbol_231 (_ BitVec 32))
(declare-const symbol_16 (_ BitVec 32))
(declare-const symbol_267 (_ BitVec 32))
(declare-const symbol_265 (_ BitVec 32))
(declare-const symbol_14 (_ BitVec 32))
(declare-const symbol_448 (_ BitVec 32))
(declare-const symbol_408 (_ BitVec 32))
(declare-const symbol_311 (_ BitVec 32))
(declare-const symbol_117 (_ BitVec 32))
(declare-const symbol_46 (_ BitVec 32))
(declare-const symbol_440 (_ BitVec 32))
(declare-const symbol_1 (_ BitVec 32))
(declare-const symbol_370 (_ BitVec 32))
(declare-const symbol_22 (_ BitVec 32))
(declare-const symbol_281 (_ BitVec 32))
(declare-const symbol_67 (_ BitVec 32))
(declare-const symbol_357 (_ BitVec 32))
(declare-const symbol_219 (_ BitVec 32))
(declare-const symbol_176 (_ BitVec 32))
(declare-const symbol_79 (_ BitVec 32))
(declare-const symbol_62 (_ BitVec 32))
(declare-const symbol_380 (_ BitVec 32))
(declare-const symbol_322 (_ BitVec 32))
(declare-const symbol_233 (_ BitVec 32))
(declare-const symbol_470 (_ BitVec 32))
(declare-const symbol_328 (_ BitVec 32))
(declare-const symbol_297 (_ BitVec 32))
(declare-const symbol_358 (_ BitVec 32))
(declare-const symbol_287 (_ BitVec 32))
(declare-const symbol_274 (_ BitVec 32))
(declare-const symbol_474 (_ BitVec 32))
(declare-const symbol_269 (_ BitVec 32))
(declare-const symbol_30 (_ BitVec 32))
(declare-const symbol_463 (_ BitVec 32))
(declare-const symbol_278 (_ BitVec 32))
(declare-const symbol_235 (_ BitVec 32))
(declare-const symbol_429 (_ BitVec 32))
(declare-const symbol_343 (_ BitVec 32))
(declare-const symbol_180 (_ BitVec 32))
(declare-const symbol_494 (_ BitVec 32))
(declare-const symbol_299 (_ BitVec 32))
(declare-const symbol_326 (_ BitVec 32))
(declare-const symbol_199 (_ BitVec 32))
(declare-const symbol_151 (_ BitVec 32))
(declare-const symbol_98 (_ BitVec 32))
(declare-const symbol_31 (_ BitVec 32))
(declare-const symbol_20 (_ BitVec 32))
(declare-const symbol_404 (_ BitVec 32))
(declare-const symbol_239 (_ BitVec 32))
(declare-const symbol_7 (_ BitVec 32))
(declare-const symbol_444 (_ BitVec 32))
(declare-const symbol_362 (_ BitVec 32))
(declare-const symbol_400 (_ BitVec 32))
(declare-const symbol_39 (_ BitVec 32))
(declare-const symbol_490 (_ BitVec 32))
(declare-const symbol_159 (_ BitVec 32))
(declare-const symbol_12 (_ BitVec 32))
(declare-const symbol_223 (_ BitVec 32))
(declare-const symbol_119 (_ BitVec 32))
(declare-const symbol_360 (_ BitVec 32))
(declare-const symbol_337 (_ BitVec 32))
(declare-const symbol_215 (_ BitVec 32))
(declare-const symbol_331 (_ BitVec 32))
(declare-const symbol_309 (_ BitVec 32))
(declare-const symbol_261 (_ BitVec 32))
(declare-const symbol_203 (_ BitVec 32))
(declare-const symbol_434 (_ BitVec 32))
(declare-const symbol_353 (_ BitVec 32))
(declare-const symbol_55 (_ BitVec 32))
(declare-const symbol_155 (_ BitVec 32))
(declare-const symbol_305 (_ BitVec 32))
(declare-const symbol_347 (_ BitVec 32))
(declare-const symbol_163 (_ BitVec 32))
(declare-const symbol_227 (_ BitVec 32))
(declare-const symbol_175 (_ BitVec 32))
(declare-const symbol_283 (_ BitVec 32))
(declare-const symbol_303 (_ BitVec 32))
(declare-const symbol_410 (_ BitVec 32))
(declare-const symbol_372 (_ BitVec 32))
(declare-const symbol_153 (_ BitVec 32))
(declare-const symbol_149 (_ BitVec 32))
(declare-const symbol_109 (_ BitVec 32))
(declare-const symbol_414 (_ BitVec 32))
(declare-const symbol_252 (_ BitVec 32))
(declare-const symbol_295 (_ BitVec 32))
(declare-const symbol_209 (_ BitVec 32))
(declare-const symbol_113 (_ BitVec 32))
(declare-const symbol_384 (_ BitVec 32))
(declare-const symbol_349 (_ BitVec 32))
(declare-const symbol_319 (_ BitVec 32))
(declare-const symbol_394 (_ BitVec 32))
(declare-const symbol_182 (_ BitVec 32))
(declare-const symbol_378 (_ BitVec 32))
(declare-const symbol_482 (_ BitVec 32))
(declare-const symbol_480 (_ BitVec 32))
(declare-const symbol_468 (_ BitVec 32))
(declare-const symbol_157 (_ BitVec 32))
(declare-const symbol_141 (_ BitVec 32))
(declare-const symbol_486 (_ BitVec 32))
(declare-const symbol_374 (_ BitVec 32))
(declare-const symbol_85 (_ BitVec 32))
(declare-const symbol_345 (_ BitVec 32))
(declare-const symbol_220 (_ BitVec 32))
(declare-const symbol_143 (_ BitVec 32))
(declare-const symbol_10 (_ BitVec 32))
(declare-const symbol_4 (_ BitVec 32))
(declare-const symbol_75 (_ BitVec 32))
(declare-const symbol_237 (_ BitVec 32))
(declare-const symbol_135 (_ BitVec 32))
(declare-const symbol_291 (_ BitVec 32))
(declare-const symbol_249 (_ BitVec 32))
(declare-const symbol_0 (_ BitVec 32))
(declare-const symbol_392 (_ BitVec 32))
(declare-const symbol_139 (_ BitVec 32))
(declare-const symbol_452 (_ BitVec 32))
(declare-const symbol_368 (_ BitVec 32))
(declare-const symbol_92 (_ BitVec 32))
(declare-const symbol_315 (_ BitVec 32))
(declare-const symbol_161 (_ BitVec 32))
(declare-const symbol_259 (_ BitVec 32))
(declare-const symbol_188 (_ BitVec 32))
(declare-const symbol_36 (_ BitVec 32))
(declare-const symbol_64 (_ BitVec 32))
(declare-const symbol_285 (_ BitVec 32))
(declare-const symbol_427 (_ BitVec 32))
(declare-const symbol_133 (_ BitVec 32))
(declare-const symbol_34 (_ BitVec 32))
(declare-const symbol_145 (_ BitVec 32))
(declare-const symbol_38 (_ BitVec 32))
(declare-const symbol_464 (_ BitVec 32))
(declare-const symbol_423 (_ BitVec 32))
(declare-const symbol_105 (_ BitVec 32))
(declare-const symbol_100 (_ BitVec 32))
(declare-const symbol_57 (_ BitVec 32))
(declare-const symbol_6 (_ BitVec 32))
(declare-const symbol_263 (_ BitVec 32))
(declare-const symbol_127 (_ BitVec 32))
(declare-const symbol_207 (_ BitVec 32))
(declare-const symbol_94 (_ BitVec 32))
(declare-const symbol_41 (_ BitVec 32))
(declare-const symbol_191 (_ BitVec 32))
(declare-const symbol_83 (_ BitVec 32))
(declare-const symbol_341 (_ BitVec 32))
(declare-const symbol_450 (_ BitVec 32))
(declare-const symbol_173 (_ BitVec 32))
(declare-const symbol_390 (_ BitVec 32))
(declare-const symbol_122 (_ BitVec 32))
(declare-const symbol_18 (_ BitVec 32))
(declare-const symbol_333 (_ BitVec 32))
(declare-const symbol_147 (_ BitVec 32))
(declare-const symbol_430 (_ BitVec 32))
(declare-const symbol_211 (_ BitVec 32))
(declare-const symbol_402 (_ BitVec 32))
(declare-const symbol_313 (_ BitVec 32))
(declare-const symbol_169 (_ BitVec 32))
(declare-const symbol_111 (_ BitVec 32))
(declare-const symbol_364 (_ BitVec 32))
(declare-const symbol_339 (_ BitVec 32))
(declare-const symbol_324 (_ BitVec 32))
(declare-const symbol_307 (_ BitVec 32))
(declare-const symbol_412 (_ BitVec 32))
(declare-const symbol_107 (_ BitVec 32))
(declare-const symbol_51 (_ BitVec 32))
(declare-const symbol_89 (_ BitVec 32))
(declare-const symbol_217 (_ BitVec 32))
(declare-const symbol_186 (_ BitVec 32))
(declare-const symbol_121 (_ BitVec 32))
(declare-const symbol_53 (_ BitVec 32))
(declare-const symbol_276 (_ BitVec 32))
(declare-const symbol_279 (_ BitVec 32))
(declare-const symbol_165 (_ BitVec 32))
(declare-const symbol_492 (_ BitVec 32))
(declare-const symbol_376 (_ BitVec 32))
(declare-const symbol_69 (_ BitVec 32))
(declare-const symbol_437 (_ BitVec 32))
(declare-const symbol_195 (_ BitVec 32))
(declare-const symbol_129 (_ BitVec 32))
(declare-const symbol_417 (_ BitVec 32))
(declare-const symbol_245 (_ BitVec 32))
(declare-const symbol_81 (_ BitVec 32))
(declare-const symbol_87 (_ BitVec 32))
(declare-const symbol_386 (_ BitVec 32))
(declare-const symbol_355 (_ BitVec 32))
(declare-const symbol_351 (_ BitVec 32))
(declare-const symbol_213 (_ BitVec 32))
(declare-const symbol_201 (_ BitVec 32))
(declare-const symbol_48 (_ BitVec 32))
(assert (not (= symbol_496 (_ bv2 32))))
(assert (not (not (= symbol_496 (_ bv1 32)))))
(assert (not (not (= symbol_494 (_ bv1 32)))))
(assert (not (not (= symbol_492 (_ bv1 32)))))
(assert (not (not (= symbol_490 (_ bv1 32)))))
(assert (not (not (= symbol_488 (_ bv1 32)))))
(assert (not (not (= symbol_486 (_ bv1 32)))))
(assert (not (not (= symbol_484 (_ bv1 32)))))
(assert (not (not (= symbol_482 (_ bv1 32)))))
(assert (not (not (= symbol_480 (_ bv1 32)))))
(assert (not (not (= symbol_478 (_ bv1 32)))))
(assert (not (not (= symbol_476 (_ bv1 32)))))
(assert (not (not (= symbol_474 (_ bv1 32)))))
(assert (not (not (= symbol_472 (_ bv1 32)))))
(assert (not (not (= symbol_470 (_ bv1 32)))))
(assert (not (not (= symbol_468 (_ bv1 32)))))
(assert (not (not (= symbol_466 (_ bv1 32)))))
(assert (not (not (= symbol_464 (_ bv1 32)))))
(assert (not (not (= symbol_463 (_ bv1 32)))))
(assert (not (not (= symbol_460 (_ bv1 32)))))
(assert (not (not (= symbol_458 (_ bv1 32)))))
(assert (not (not (= symbol_456 (_ bv1 32)))))
(assert (not (not (= symbol_454 (_ bv1 32)))))
(assert (not (not (= symbol_452 (_ bv1 32)))))
(assert (not (not (= symbol_450 (_ bv1 32)))))
(assert (not (not (= symbol_448 (_ bv1 32)))))
(assert (not (not (= symbol_446 (_ bv1 32)))))
(assert (not (not (= symbol_444 (_ bv1 32)))))
(assert (not (not (= symbol_443 (_ bv1 32)))))
(assert (not (not (= symbol_440 (_ bv1 32)))))
(assert (not (not (= symbol_438 (_ bv1 32)))))
(assert (not (not (= symbol_437 (_ bv1 32)))))
(assert (not (not (= symbol_434 (_ bv1 32)))))
(assert (not (not (= symbol_432 (_ bv1 32)))))
(assert (not (not (= symbol_430 (_ bv1 32)))))
(assert (not (not (= symbol_429 (_ bv1 32)))))
(assert (not (not (= symbol_427 (_ bv1 32)))))
(assert (not (not (= symbol_425 (_ bv1 32)))))
(assert (not (not (= symbol_423 (_ bv1 32)))))
(assert (not (not (= symbol_421 (_ bv1 32)))))
(assert (not (not (= symbol_419 (_ bv1 32)))))
(assert (not (not (= symbol_417 (_ bv1 32)))))
(assert (not (not (= symbol_414 (_ bv1 32)))))
(assert (not (not (= symbol_412 (_ bv1 32)))))
(assert (not (not (= symbol_410 (_ bv1 32)))))
(assert (not (not (= symbol_408 (_ bv1 32)))))
(assert (not (not (= symbol_406 (_ bv1 32)))))
(assert (not (not (= symbol_404 (_ bv1 32)))))
(assert (not (not (= symbol_402 (_ bv1 32)))))
(assert (not (not (= symbol_400 (_ bv1 32)))))
(assert (not (not (= symbol_398 (_ bv1 32)))))
(assert (not (not (= symbol_396 (_ bv1 32)))))
(assert (not (not (= symbol_394 (_ bv1 32)))))
(assert (not (not (= symbol_392 (_ bv1 32)))))
(assert (not (not (= symbol_390 (_ bv1 32)))))
(assert (not (not (= symbol_388 (_ bv1 32)))))
(assert (not (not (= symbol_386 (_ bv1 32)))))
(assert (not (not (= symbol_384 (_ bv1 32)))))
(assert (not (not (= symbol_382 (_ bv1 32)))))
(assert (not (not (= symbol_380 (_ bv1 32)))))
(assert (not (not (= symbol_378 (_ bv1 32)))))
(assert (not (not (= symbol_376 (_ bv1 32)))))
(assert (not (not (= symbol_374 (_ bv1 32)))))
(assert (not (not (= symbol_372 (_ bv1 32)))))
(assert (not (not (= symbol_370 (_ bv1 32)))))
(assert (not (not (= symbol_368 (_ bv1 32)))))
(assert (not (not (= symbol_366 (_ bv1 32)))))
(assert (not (not (= symbol_364 (_ bv1 32)))))
(assert (not (not (= symbol_362 (_ bv1 32)))))
(assert (not (not (= symbol_360 (_ bv1 32)))))
(assert (not (not (= symbol_358 (_ bv1 32)))))
(assert (not (not (= symbol_357 (_ bv1 32)))))
(assert (not (not (= symbol_355 (_ bv1 32)))))
(assert (not (not (= symbol_353 (_ bv1 32)))))
(assert (not (not (= symbol_351 (_ bv1 32)))))
(assert (not (not (= symbol_349 (_ bv1 32)))))
(assert (not (not (= symbol_347 (_ bv1 32)))))
(assert (not (not (= symbol_345 (_ bv1 32)))))
(assert (not (not (= symbol_343 (_ bv1 32)))))
(assert (not (not (= symbol_341 (_ bv1 32)))))
(assert (not (not (= symbol_339 (_ bv1 32)))))
(assert (not (not (= symbol_337 (_ bv1 32)))))
(assert (not (not (= symbol_335 (_ bv1 32)))))
(assert (not (not (= symbol_333 (_ bv1 32)))))
(assert (not (not (= symbol_331 (_ bv1 32)))))
(assert (not (not (= symbol_329 (_ bv1 32)))))
(assert (not (not (= symbol_328 (_ bv1 32)))))
(assert (not (not (= symbol_326 (_ bv1 32)))))
(assert (not (not (= symbol_324 (_ bv1 32)))))
(assert (not (not (= symbol_322 (_ bv1 32)))))
(assert (not (not (= symbol_319 (_ bv1 32)))))
(assert (not (not (= symbol_317 (_ bv1 32)))))
(assert (not (not (= symbol_315 (_ bv1 32)))))
(assert (not (not (= symbol_313 (_ bv1 32)))))
(assert (not (not (= symbol_311 (_ bv1 32)))))
(assert (not (not (= symbol_309 (_ bv1 32)))))
(assert (not (not (= symbol_307 (_ bv1 32)))))
(assert (not (not (= symbol_305 (_ bv1 32)))))
(assert (not (not (= symbol_303 (_ bv1 32)))))
(assert (not (not (= symbol_301 (_ bv1 32)))))
(assert (not (not (= symbol_299 (_ bv1 32)))))
(assert (not (not (= symbol_297 (_ bv1 32)))))
(assert (not (not (= symbol_295 (_ bv1 32)))))
(assert (not (not (= symbol_293 (_ bv1 32)))))
(assert (not (not (= symbol_291 (_ bv1 32)))))
(assert (not (not (= symbol_289 (_ bv1 32)))))
(assert (not (not (= symbol_287 (_ bv1 32)))))
(assert (not (not (= symbol_285 (_ bv1 32)))))
(assert (not (not (= symbol_283 (_ bv1 32)))))
(assert (not (not (= symbol_281 (_ bv1 32)))))
(assert (not (not (= symbol_279 (_ bv1 32)))))
(assert (not (not (= symbol_278 (_ bv1 32)))))
(assert (not (not (= symbol_276 (_ bv1 32)))))
(assert (not (not (= symbol_274 (_ bv1 32)))))
(assert (not (not (= symbol_271 (_ bv1 32)))))
(assert (not (not (= symbol_269 (_ bv1 32)))))
(assert (not (not (= symbol_267 (_ bv1 32)))))
(assert (not (not (= symbol_265 (_ bv1 32)))))
(assert (not (not (= symbol_263 (_ bv1 32)))))
(assert (not (not (= symbol_261 (_ bv1 32)))))
(assert (not (not (= symbol_259 (_ bv1 32)))))
(assert (not (not (= symbol_257 (_ bv1 32)))))
(assert (not (not (= symbol_255 (_ bv1 32)))))
(assert (not (not (= symbol_252 (_ bv1 32)))))
(assert (not (not (= symbol_251 (_ bv1 32)))))
(assert (not (not (= symbol_249 (_ bv1 32)))))
(assert (not (not (= symbol_247 (_ bv1 32)))))
(assert (not (not (= symbol_245 (_ bv1 32)))))
(assert (not (not (= symbol_243 (_ bv1 32)))))
(assert (not (not (= symbol_241 (_ bv1 32)))))
(assert (not (not (= symbol_239 (_ bv1 32)))))
(assert (not (not (= symbol_237 (_ bv1 32)))))
(assert (not (not (= symbol_235 (_ bv1 32)))))
(assert (not (not (= symbol_233 (_ bv1 32)))))
(assert (not (not (= symbol_231 (_ bv1 32)))))
(assert (not (not (= symbol_229 (_ bv1 32)))))
(assert (not (not (= symbol_227 (_ bv1 32)))))
(assert (not (not (= symbol_225 (_ bv1 32)))))
(assert (not (not (= symbol_223 (_ bv1 32)))))
(assert (not (not (= symbol_220 (_ bv1 32)))))
(assert (not (not (= symbol_219 (_ bv1 32)))))
(assert (not (not (= symbol_217 (_ bv1 32)))))
(assert (not (not (= symbol_215 (_ bv1 32)))))
(assert (not (not (= symbol_213 (_ bv1 32)))))
(assert (not (not (= symbol_211 (_ bv1 32)))))
(assert (not (not (= symbol_209 (_ bv1 32)))))
(assert (not (not (= symbol_207 (_ bv1 32)))))
(assert (not (not (= symbol_205 (_ bv1 32)))))
(assert (not (not (= symbol_203 (_ bv1 32)))))
(assert (not (not (= symbol_201 (_ bv1 32)))))
(assert (not (not (= symbol_199 (_ bv1 32)))))
(assert (not (not (= symbol_197 (_ bv1 32)))))
(assert (not (not (= symbol_195 (_ bv1 32)))))
(assert (not (not (= symbol_193 (_ bv1 32)))))
(assert (not (not (= symbol_191 (_ bv1 32)))))
(assert (not (not (= symbol_189 (_ bv1 32)))))
(assert (not (not (= symbol_188 (_ bv1 32)))))
(assert (not (not (= symbol_186 (_ bv1 32)))))
(assert (not (not (= symbol_184 (_ bv1 32)))))
(assert (not (not (= symbol_182 (_ bv1 32)))))
(assert (not (not (= symbol_180 (_ bv1 32)))))
(assert (not (not (= symbol_178 (_ bv1 32)))))
(assert (not (not (= symbol_176 (_ bv1 32)))))
(assert (not (not (= symbol_175 (_ bv1 32)))))
(assert (not (not (= symbol_173 (_ bv1 32)))))
(assert (not (not (= symbol_171 (_ bv1 32)))))
(assert (not (not (= symbol_169 (_ bv1 32)))))
(assert (not (not (= symbol_167 (_ bv1 32)))))
(assert (not (not (= symbol_165 (_ bv1 32)))))
(assert (not (not (= symbol_163 (_ bv1 32)))))
(assert (not (not (= symbol_161 (_ bv1 32)))))
(assert (not (not (= symbol_159 (_ bv1 32)))))
(assert (not (not (= symbol_157 (_ bv1 32)))))
(assert (not (not (= symbol_155 (_ bv1 32)))))
(assert (not (not (= symbol_153 (_ bv1 32)))))
(assert (not (not (= symbol_151 (_ bv1 32)))))
(assert (not (not (= symbol_149 (_ bv1 32)))))
(assert (not (not (= symbol_147 (_ bv1 32)))))
(assert (not (not (= symbol_145 (_ bv1 32)))))
(assert (not (not (= symbol_143 (_ bv1 32)))))
(assert (not (not (= symbol_141 (_ bv1 32)))))
(assert (not (not (= symbol_139 (_ bv1 32)))))
(assert (not (not (= symbol_137 (_ bv1 32)))))
(assert (not (not (= symbol_135 (_ bv1 32)))))
(assert (not (not (= symbol_133 (_ bv1 32)))))
(assert (not (not (= symbol_131 (_ bv1 32)))))
(assert (not (not (= symbol_129 (_ bv1 32)))))
(assert (not (not (= symbol_127 (_ bv1 32)))))
(assert (not (not (= symbol_125 (_ bv1 32)))))
(assert (not (not (= symbol_122 (_ bv1 32)))))
(assert (not (not (= symbol_121 (_ bv1 32)))))
(assert (not (not (= symbol_119 (_ bv1 32)))))
(assert (not (not (= symbol_117 (_ bv1 32)))))
(assert (not (not (= symbol_115 (_ bv1 32)))))
(assert (not (not (= symbol_113 (_ bv1 32)))))
(assert (not (not (= symbol_111 (_ bv1 32)))))
(assert (not (not (= symbol_109 (_ bv1 32)))))
(assert (not (not (= symbol_107 (_ bv1 32)))))
(assert (not (not (= symbol_105 (_ bv1 32)))))
(assert (not (not (= symbol_103 (_ bv1 32)))))
(assert (not (not (= symbol_102 (_ bv1 32)))))
(assert (not (not (= symbol_100 (_ bv1 32)))))
(assert (not (not (= symbol_98 (_ bv1 32)))))
(assert (not (not (= symbol_96 (_ bv1 32)))))
(assert (not (not (= symbol_94 (_ bv1 32)))))
(assert (not (not (= symbol_92 (_ bv1 32)))))
(assert (not (not (= symbol_91 (_ bv1 32)))))
(assert (not (not (= symbol_89 (_ bv1 32)))))
(assert (not (not (= symbol_87 (_ bv1 32)))))
(assert (not (not (= symbol_85 (_ bv1 32)))))
(assert (not (not (= symbol_83 (_ bv1 32)))))
(assert (not (not (= symbol_81 (_ bv1 32)))))
(assert (not (not (= symbol_79 (_ bv1 32)))))
(assert (not (not (= symbol_77 (_ bv1 32)))))
(assert (not (not (= symbol_75 (_ bv1 32)))))
(assert (not (not (= symbol_73 (_ bv1 32)))))
(assert (not (not (= symbol_71 (_ bv1 32)))))
(assert (not (not (= symbol_69 (_ bv1 32)))))
(assert (not (not (= symbol_67 (_ bv1 32)))))
(assert (not (not (= symbol_64 (_ bv1 32)))))
(assert (not (not (= symbol_62 (_ bv1 32)))))
(assert (not (not (= symbol_60 (_ bv1 32)))))
(assert (not (not (= symbol_57 (_ bv1 32)))))
(assert (not (not (= symbol_55 (_ bv1 32)))))
(assert (not (not (= symbol_53 (_ bv1 32)))))
(assert (not (not (= symbol_51 (_ bv1 32)))))
(assert (not (not (= symbol_48 (_ bv1 32)))))
(assert (not (not (= symbol_46 (_ bv1 32)))))
(assert (not (not (= symbol_44 (_ bv1 32)))))
(assert (not (not (= symbol_42 (_ bv1 32)))))
(assert (not (not (= symbol_41 (_ bv1 32)))))
(assert (not (not (= symbol_39 (_ bv1 32)))))
(assert (not (not (= symbol_38 (_ bv1 32)))))
(assert (not (not (= symbol_36 (_ bv1 32)))))
(assert (not (not (= symbol_34 (_ bv1 32)))))
(assert (not (not (= symbol_31 (_ bv1 32)))))
(assert (not (not (= symbol_30 (_ bv1 32)))))
(assert (not (not (= symbol_28 (_ bv1 32)))))
(assert (not (not (= symbol_25 (_ bv1 32)))))
(assert (not (not (= symbol_23 (_ bv1 32)))))
(assert (not (not (= symbol_22 (_ bv1 32)))))
(assert (not (not (= symbol_20 (_ bv1 32)))))
(assert (not (not (= symbol_18 (_ bv1 32)))))
(assert (not (not (= symbol_16 (_ bv1 32)))))
(assert (not (not (= symbol_14 (_ bv1 32)))))
(assert (not (not (= symbol_12 (_ bv1 32)))))
(assert (not (not (= symbol_10 (_ bv1 32)))))
(assert (not (not (= symbol_7 (_ bv1 32)))))
(assert (not (not (= symbol_6 (_ bv1 32)))))
(assert (not (not (= symbol_4 (_ bv1 32)))))
(assert (not (not (= symbol_1 (_ bv1 32)))))
(assert (not (not (= symbol_0 (_ bv10 32)))))
(assert (not (= symbol_0 (_ bv1 32))))
(check-sat)